book/ch03/imunization.sol
# Solution for model linear program
# Objective value = 9.2496949152542328e+01
x[0] 0
x[1] 5.0980392156862749e+01
x[2] 0
x[3] 0
x[4] 0
y[0] 150
y[1] 4.9019607843137251e+01
y[2] 2.0343436357593890e+02
z[0] 0
z[1] 0
z[2] 3.5194416749750752e+02
z[3] 0
z[4] 0
z[5] 9.2496949152542328e+01
